language Essence 1.3

letting blksize_delta be
        function(1 --> 10, 2 --> 10, 3 --> 10, 4 --> 10, 5 --> 10, 6 --> 10, 7 --> 10, 8 --> 10, 9 --> 10, 10 --> 10,
                 11 --> 10, 12 --> 10, 13 --> 10, 14 --> 10, 15 --> 10, 16 --> 10, 17 --> 10, 18 --> 10, 19 --> 10,
                 20 --> 10, 21 --> 10, 22 --> 10, 23 --> 10, 24 --> 10, 25 --> 10, 26 --> 10, 27 --> 10, 28 --> 10,
                 29 --> 10, 30 --> 10, 31 --> 10, 32 --> 10, 33 --> 10, 34 --> 10, 35 --> 10, 36 --> 10, 37 --> 10,
                 38 --> 10, 39 --> 10, 40 --> 10, 41 --> 10, 42 --> 10, 43 --> 10, 44 --> 10, 45 --> 10, 46 --> 10,
                 47 --> 10, 48 --> 10, 49 --> 10)
letting maxcars be
        function(1 --> 8, 2 --> 8, 3 --> 8, 4 --> 10, 5 --> 8, 6 --> 8, 7 --> 8, 8 --> 9, 9 --> 10, 10 --> 8, 11 --> 8,
                 12 --> 9, 13 --> 8, 14 --> 8, 15 --> 8, 16 --> 8, 17 --> 8, 18 --> 10, 19 --> 9, 20 --> 9, 21 --> 8,
                 22 --> 8, 23 --> 8, 24 --> 8, 25 --> 10, 26 --> 8, 27 --> 8, 28 --> 8, 29 --> 9, 30 --> 8, 31 --> 8,
                 32 --> 9, 33 --> 8, 34 --> 10, 35 --> 8, 36 --> 8, 37 --> 9, 38 --> 8, 39 --> 8, 40 --> 8, 41 --> 9,
                 42 --> 9, 43 --> 8, 44 --> 8, 45 --> 8, 46 --> 8, 47 --> 8, 48 --> 8, 49 --> 8)
letting n_cars be 159
letting n_classes be 17
letting n_options be 49
letting quantity be
        function(1 --> 9, 2 --> 11, 3 --> 10, 4 --> 11, 5 --> 9, 6 --> 9, 7 --> 9, 8 --> 9, 9 --> 9, 10 --> 9, 11 --> 9,
                 12 --> 9, 13 --> 10, 14 --> 9, 15 --> 9, 16 --> 9, 17 --> 9)
letting usage be
        relation((1, 1), (1, 3), (1, 8), (1, 14), (1, 17), (1, 20), (1, 21), (1, 30), (1, 33), (1, 45), (1, 46), (2, 1),
                 (2, 3), (2, 7), (2, 8), (2, 9), (2, 11), (2, 13), (2, 16), (2, 17), (2, 20), (2, 23), (2, 24), (2, 25),
                 (2, 26), (2, 28), (2, 33), (2, 36), (2, 38), (2, 48), (3, 13), (3, 17), (3, 21), (3, 24), (3, 27),
                 (3, 28), (3, 30), (3, 31), (3, 35), (3, 41), (3, 46), (4, 5), (4, 7), (4, 9), (4, 10), (4, 22),
                 (4, 26), (4, 27), (4, 33), (4, 36), (4, 45), (4, 47), (5, 5), (5, 8), (5, 16), (5, 17), (5, 33),
                 (5, 36), (5, 40), (6, 1), (6, 9), (6, 10), (6, 13), (6, 20), (6, 22), (6, 35), (6, 42), (6, 45),
                 (6, 46), (7, 4), (7, 16), (7, 17), (7, 23), (7, 33), (7, 34), (7, 38), (7, 41), (7, 43), (7, 44),
                 (7, 48), (8, 2), (8, 19), (8, 24), (8, 31), (8, 35), (8, 37), (8, 44), (9, 1), (9, 7), (9, 19),
                 (9, 24), (9, 25), (9, 37), (9, 40), (10, 4), (10, 8), (10, 11), (10, 16), (10, 22), (11, 12), (11, 25),
                 (11, 30), (11, 34), (11, 36), (11, 39), (12, 2), (12, 4), (12, 11), (12, 17), (12, 18), (12, 20),
                 (12, 21), (12, 27), (12, 28), (12, 32), (12, 35), (12, 37), (12, 45), (13, 3), (13, 10), (13, 15),
                 (13, 16), (13, 23), (13, 35), (13, 37), (13, 39), (13, 41), (13, 43), (13, 45), (14, 49), (15, 29),
                 (16, 5), (16, 6), (16, 9), (16, 16), (16, 19), (16, 23), (16, 31), (16, 38), (16, 47), (17, 6),
                 (17, 7), (17, 11), (17, 13), (17, 17), (17, 19), (17, 21), (17, 24), (17, 32), (17, 33), (17, 36))
$ Visualisation for usage
$  1  1
$  1  3
$  1  8
$  1 14
$  1 17
$  1 20
$  1 21
$  1 30
$  1 33
$  1 45
$  1 46
$  2  1
$  2  3
$  2  7
$  2  8
$  2  9
$  2 11
$  2 13
$  2 16
$  2 17
$  2 20
$  2 23
$  2 24
$  2 25
$  2 26
$  2 28
$  2 33
$  2 36
$  2 38
$  2 48
$  3 13
$  3 17
$  3 21
$  3 24
$  3 27
$  3 28
$  3 30
$  3 31
$  3 35
$  3 41
$  3 46
$  4  5
$  4  7
$  4  9
$  4 10
$  4 22
$  4 26
$  4 27
$  4 33
$  4 36
$  4 45
$  4 47
$  5  5
$  5  8
$  5 16
$  5 17
$  5 33
$  5 36
$  5 40
$  6  1
$  6  9
$  6 10
$  6 13
$  6 20
$  6 22
$  6 35
$  6 42
$  6 45
$  6 46
$  7  4
$  7 16
$  7 17
$  7 23
$  7 33
$  7 34
$  7 38
$  7 41
$  7 43
$  7 44
$  7 48
$  8  2
$  8 19
$  8 24
$  8 31
$  8 35
$  8 37
$  8 44
$  9  1
$  9  7
$  9 19
$  9 24
$  9 25
$  9 37
$  9 40
$ 10  4
$ 10  8
$ 10 11
$ 10 16
$ 10 22
$ 11 12
$ 11 25
$ 11 30
$ 11 34
$ 11 36
$ 11 39
$ 12  2
$ 12  4
$ 12 11
$ 12 17
$ 12 18
$ 12 20
$ 12 21
$ 12 27
$ 12 28
$ 12 32
$ 12 35
$ 12 37
$ 12 45
$ 13  3
$ 13 10
$ 13 15
$ 13 16
$ 13 23
$ 13 35
$ 13 37
$ 13 39
$ 13 41
$ 13 43
$ 13 45
$ 14 49
$ 15 29
$ 16  5
$ 16  6
$ 16  9
$ 16 16
$ 16 19
$ 16 23
$ 16 31
$ 16 38
$ 16 47
$ 17  6
$ 17  7
$ 17 11
$ 17 13
$ 17 17
$ 17 19
$ 17 21
$ 17 24
$ 17 32
$ 17 33
$ 17 36

